
  12    4
  10   10   10   10

   0   0   0   0   0   5 2 3 6 10 11 
   6  10  10  10  10   2 5 4 
   7  10  10  10  10   3 9 8 7 
   8  10  10  10  10   2 8 7 
  10  10  10  10  10   2 8 7 
   9  10  10  10  10   2 8 7 
   7  10  10  10  10   1 12
   1  10  10  10  10   1 12
   6  10  10  10  10   1 12
   5  10  10  10  10   1 12
   7  10  10  10  10   1 12
   0   0   0   0   0   0 
